proyfinal/src/viki/013/experimentInOfficeAgust.take6.output/0a13f051-66b2-4f6d-b592-f361445323af.als.dat
{'cnf.clauses': '118081',
 'cnf.totvars': '69608',
 'conflict literals': '1442',
 'conflicts': '201',
 'decisions': '37080',
 'memused.mb': '15.81',
 'outcome': 'UNSAT',
 'propagations': '321072',
 'restarts': '2',
 'solver.msecs': 47,
 'task.msecs': 129}
