proyfinal/src/viki/013/experimentInOfficeAgust.take6.output/0a13f051-66b2-4f6d-b592-f361445323af.als.out
Reading from standard input... Use '--help' for help.
============================[ Problem Statistics ]=============================
|                                                                             |
|  Number of variables:         69608                                         |
|  Number of clauses:          118081                                         |
|  Parse time:                   0.02 s                                       |
|                                                                             |
============================[ Search Statistics ]==============================
| Conflicts |          ORIGINAL         |          LEARNT          | Progress |
|           |    Vars  Clauses Literals |    Limit  Clauses Lit/Cl |          |
===============================================================================
|       100 |   56903    82630   204501 |    30297       95      8 | 18.252 % |
===============================================================================
restarts              : 2
conflicts             : 201            (4199 /sec)
decisions             : 37080          (0.00 % random) (774711 /sec)
propagations          : 321072         (6708146 /sec)
conflict literals     : 1442           (28.86 % deleted)
Memory used           : 15.81 MB
CPU time              : 0.047863 s

UNSATISFIABLE
